8573
13, 14, 52, 11, 25, 4, 43, 15, 6, 5, 37, 39, 40, 38, 24, 48, 46, 44, 34, 35, 36, 49, 32, 1, 22, 3, 17, 21, 42, 7, 2, 30, 29, 16, 20, 50, 23, 31, 18, 45, 19, 41, 8, 9, 10, 33, 51, 12, 28, 26, 47, 27
